SAT
-160 -45 -102 107 -35 27 -145 22 -125 -133 -111 -143 171 -151 -18 -90 132 57 -61 166 37 -104 -34 -70 55 -17 3 89 -154 -92 54 -142 129 -114 -108 -158 40 105 -19 110 -128 -69 135 59 146 -127 -39 67 44 -103 -106 -49 98 95 20 140 -84 -23 113 174 -32 117 -1 -82 11 -144 60 79 130 52 10 -53 74 93 -41 12 -46 -75 157 116 63 100 -175 -101 -150 64 -68 -50 -33 -155 -138 -86 162 -76 -73 -139 -149 42 14 148 -147 -7 71 -72 118 85 170 28 -115 -121 13 51 -165 -109 -81 87 -65 136 169 124 -58 -15 4 -36 78 94 -6 43 -97 47 38 80 -168 -141 -137 66 122 56 -161 126 -31 -21 119 -30 -167 -88 -77 123 -172 -24 29 -134 -163 -8 -159 -156 -164 -26 9 112 -120 99 -25 -5 153 48 173 152 131 16 62 -96 -91 2 -83 0
